N = 14;
H = 5;
T = 2;

avail = array3d(1..N, 1..H, 1..T, [1, 0, 1, 6, 6, 6, 7, 8, 0, 8, 10, 8, 5, 4, 3, 1, 3, 7, 8, 10, 0, 3, 1, 4, 8, 7, 0, 9, 10, 4, 4, 1, 9, 2, 0, 10, 7, 3, 7, 4, 8, 8, 7, 2, 7, 1, 3, 9, 6, 6, 6, 5, 3, 2, 2, 9, 4, 5, 0, 4, 3, 9, 1, 0, 2, 10, 8, 3, 3, 1, 10, 0, 9, 7, 7, 3, 4, 4, 9, 0, 6, 8, 0, 1, 1, 8, 8, 2, 6, 9, 6, 5, 9, 5, 3, 1, 2, 0, 3, 5, 8, 10, 1, 5, 4, 9, 6, 2, 3, 7, 3, 9, 2, 6, 2, 2, 7, 1, 10, 7, 7, 6, 2, 10, 4, 10, 2, 10, 10, 10, 7, 3, 0, 1, 2, 4, 5, 5, 6, 2]);

r = array2d(1..H, 1..T, [7, 5, 4, 3, 7, 1, 3, 5, 4, 2]);
